17	4
25	31	30	29	
0	0	0	0	0	3	2	3	4	
2	1	7	2	2	3	7	10	17	
5	7	3	3	6	1	17	
8	9	7	3	8	3	5	6	8	
6	6	5	1	1	3	12	17	17	
200	1	7	1	1	3	7	9	14	
25	10	1	1	3	1	17	
100	10	9	6	2	2	11	17	
25	6	3	8	3	3	16	17	17	
200	5	7	4	8	2	15	17	
125	3	3	7	9	3	17	17	17	
50	1	8	1	4	1	13	
4	3	5	9	2	1	16	
9	9	1	10	7	2	17	17	
5	1	10	6	1	2	17	17	
9	4	8	5	4	3	17	17	17	
0	0	0	0	0	0	
